120
150
69
100
50
39
43
45
21
27
35
65
89
41
92
33
99
50
50
91
20
35
29
43
39
30
46
99
32
78
89
61
95
72
21
28
27
25
37
91
67
78
50
100
67
98
32
77
39
77
50
99
34
43
38
26
93
43
57
52
49
50
99
33
41
54
55
72
45
67
33
62
95
99
96
27
54
25
20
45
72
45
81
79
93
83
67
87
83
89
77
57
83
96
89
67
21
54
100
22
24
89
24
100
50
50
61
22
67
75
96
30
71
95
33
55
54
63
61
75
61
73
